NAME: line_60_8
TYPE: TSP
COMMENT: line_60_8
DIMENSION: 60
EDGE_WEIGHT_TYPE: EUC_2D
NODE_COORD_SECTION
1 0.0 304.0
2 0.0 448.0
3 0.0 190.0
4 0.0 57.0
5 0.0 345.0
6 0.0 562.0
7 0.0 290.0
8 0.0 402.0
9 0.0 327.0
10 0.0 231.0
11 0.0 188.0
12 0.0 100.0
13 0.0 372.0
14 0.0 250.0
15 0.0 486.0
16 0.0 288.0
17 0.0 129.0
18 0.0 315.0
19 0.0 377.0
20 0.0 212.0
21 0.0 341.0
22 0.0 183.0
23 0.0 545.0
24 0.0 381.0
25 0.0 462.0
26 0.0 129.0
27 0.0 217.0
28 0.0 379.0
29 0.0 386.0
30 0.0 470.0
31 0.0 72.0
32 0.0 132.0
33 0.0 473.0
34 0.0 512.0
35 0.0 501.0
36 0.0 368.0
37 0.0 215.0
38 0.0 371.0
39 0.0 319.0
40 0.0 287.0
41 0.0 35.0
42 0.0 571.0
43 0.0 56.0
44 0.0 45.0
45 0.0 184.0
46 0.0 302.0
47 0.0 335.0
48 0.0 506.0
49 0.0 151.0
50 0.0 323.0
51 0.0 122.0
52 0.0 350.0
53 0.0 486.0
54 0.0 276.0
55 0.0 20.0
56 0.0 84.0
57 0.0 407.0
58 0.0 434.0
59 0.0 153.0
60 0.0 234.0
